SimulationType                MonteCarlo
Ensemble                      GCMC
NumberOfCycles                10000
NumberOfInitializationCycles  2000
PrintEvery                    5000
PrintPropertiesEvery          5000

ForceField                    Generic
UseChargesFromCIFFile         no

Framework 0
FrameworkName                 VAGMAT_clean
UnitCells                     1 1 1

ExternalTemperature           77.0
ExternalPressure              10000000

MoleculeDefinitions           ExampleDefinitions

Component 0 MoleculeName               hydrogen
            MoleculeDefinition         ExampleDefinitions
            MolFraction                1.0
            TranslationProbability     1.0
            RotationProbability        1.0
            SwapProbability            1.0
